letting n be 12
letting exclusions be [
]
letting assignments be [
[11, 3, 1, 6]
,
[3, 6, 1, 3]
,
[8, 1, 2, 3]
,
[1, 4, 2, 11]
,
[11, 6, 2, 9]
,
[11, 4, 2, 8]
,
[5, 5, 2, 4]
,
[4, 6, 1, 10]
,
[9, 6, 1, 6]
,
[1, 3, 1, 10]
]
